0
6
10
11
12
15
18
21
22
24
24
18
18
19
21
23
21
22
23
22
22
22
19
14
16
17
18
17
15
17
17
18
19
19
20
17
16
16
17
17
19
20
21
22
22
22
22
22
22
22
22
22
22
22
22
23
24
24
24
24
24
24
25
25
25
25
25
24
24
24
24
23
24
26
27
27
27
28
28
29
29
29
30
30
30
30
30
31
31
31
31
31
31
31
31
31
31
31
31
31
31
